language ESSENCE' 1.0

letting n_courses be 99
letting n_periods be 16
letting prerequisite_RelationAsSet_Explicit_1 be
        [1, 1, 1, 1, 1, 1, 1, 1, 1, 1, 1, 2, 2, 2, 2, 2, 2, 2, 2, 2, 2, 2, 2, 2, 2, 2, 2, 2, 2, 3, 3, 3, 3, 3, 3, 3, 3,
         3, 3, 3, 3, 3, 3, 3, 3, 3, 3, 3, 3, 3, 4, 4, 4, 4, 4, 4, 4, 4, 4, 4, 4, 4, 4, 4, 4, 4, 4, 4, 4, 4, 5, 5, 5, 5,
         5, 5, 5, 5, 5, 5, 5, 5, 5, 5, 5, 5, 5, 5, 6, 6, 6, 6, 6, 6, 6, 6, 6, 6, 6, 6, 7, 7, 7, 7, 7, 7, 7, 7, 7, 7, 7,
         7, 7, 7, 8, 8, 8, 8, 8, 8, 8, 8, 8, 8, 9, 9, 9, 9, 9, 9, 9, 9, 9, 9, 9, 9, 9, 9, 9, 9, 9, 9, 9, 9, 10, 10, 10,
         10, 10, 10, 10, 10, 10, 10, 10, 10, 10, 10, 10, 10, 11, 11, 11, 11, 11, 11, 11, 11, 11, 11, 11, 11, 11, 11, 11,
         12, 12, 12, 12, 12, 12, 12, 12, 12, 12, 12, 12, 12, 12, 13, 13, 13, 13, 13, 13, 13, 13, 13, 13, 13, 13, 13, 13,
         14, 14, 14, 14, 14, 14, 14, 14, 14, 14, 14, 14, 14, 14, 14, 14, 14, 14, 15, 15, 15, 15, 15, 15, 15, 15, 15, 15,
         15, 15, 15, 15, 15, 15, 15, 16, 16, 16, 16, 16, 16, 16, 16, 16, 16, 16, 16, 16, 16, 17, 17, 17, 17, 17, 17, 17,
         17, 17, 17, 17, 17, 17, 18, 18, 18, 18, 18, 18, 18, 18, 18, 18, 18, 18, 18, 19, 19, 19, 19, 19, 19, 19, 19, 19,
         19, 19, 19, 19, 19, 20, 20, 20, 20, 20, 20, 20, 20, 20, 20, 20, 20, 21, 21, 21, 21, 21, 21, 21, 21, 21, 21, 21,
         21, 21, 21, 21, 21, 21, 21, 21, 21, 22, 22, 22, 22, 22, 22, 22, 22, 22, 22, 22, 22, 22, 22, 22, 23, 23, 23, 23,
         23, 23, 23, 23, 23, 23, 23, 23, 23, 23, 24, 24, 24, 24, 24, 24, 24, 24, 24, 24, 24, 24, 24, 24, 24, 25, 25, 25,
         25, 25, 25, 25, 25, 25, 25, 25, 25, 25, 25, 26, 26, 26, 26, 26, 26, 26, 26, 26, 26, 26, 26, 26, 26, 26, 26, 26,
         26, 26, 26, 26, 26, 27, 27, 27, 27, 27, 27, 27, 27, 27, 27, 27, 27, 27, 27, 27, 27, 28, 28, 28, 28, 28, 28, 28,
         28, 28, 28, 28, 28, 28, 28, 28, 28, 28, 28, 28, 28, 28, 29, 29, 29, 29, 29, 29, 29, 29, 29, 29, 29, 29, 30, 30,
         30, 30, 30, 30, 30, 30, 30, 30, 30, 30, 30, 30, 30, 31, 31, 31, 31, 31, 31, 31, 31, 31, 31, 31, 31, 31, 31, 31,
         32, 32, 32, 32, 32, 32, 32, 32, 32, 33, 33, 33, 33, 33, 33, 33, 34, 34, 34, 34, 34, 34, 34, 35, 35, 35, 35, 35,
         35, 35, 35, 35, 35, 36, 36, 36, 37, 37, 37, 37, 37, 37, 37, 38, 38, 38, 38, 38, 38, 39, 39, 39, 39, 39, 39, 39,
         39, 40, 40, 40, 40, 40, 40, 40, 40, 40, 40, 40, 41, 41, 41, 41, 41, 41, 42, 42, 42, 42, 42, 42, 42, 42, 42, 42,
         43, 43, 43, 43, 43, 43, 43, 43, 44, 44, 44, 44, 44, 44, 44, 45, 45, 45, 45, 45, 45, 45, 45, 45, 45, 46, 46, 46,
         46, 46, 46, 46, 47, 47, 47, 47, 47, 48, 48, 48, 48, 48, 48, 49, 49, 49, 49, 49, 50, 50, 50, 50, 50, 50, 50, 50,
         51, 51, 51, 51, 51, 51, 52, 52, 52, 52, 52, 52, 53, 53, 53, 53, 53, 53, 54, 54, 54, 54, 54, 54, 54, 54, 54, 55,
         55, 55, 55, 55, 55, 55, 55, 56, 56, 56, 56, 56, 56, 56, 56, 56, 57, 57, 57, 57, 57, 57, 57, 57, 57, 57, 58, 58,
         58, 58, 58, 58, 58, 59, 59, 59, 59, 59, 59, 59, 59, 59, 60, 60, 60, 60, 60, 60, 60, 61, 61, 61, 61, 61, 62, 62,
         62, 62, 62, 62, 62, 62, 63, 63, 63, 63, 63, 63, 63, 64, 64, 64, 64, 65, 65, 65, 65, 65, 65, 65, 66, 66, 66, 66,
         66, 66, 67, 67, 67, 67, 67, 67, 67, 67, 67, 68, 68, 68, 68, 68, 68, 68, 68, 68, 69, 69, 69, 69, 69, 69, 69, 69,
         70, 70, 70, 70, 70, 70, 70, 70, 70, 70, 70, 71, 71, 71, 71, 71, 71, 72, 72, 72, 73, 73, 73, 73, 73, 74, 74, 74,
         74, 74, 74, 74, 75, 75, 75, 75, 75, 75, 76, 76, 76, 76, 76, 76, 76, 76, 76, 77, 77, 77, 77, 77, 77, 77, 77, 77,
         77, 78, 78, 78, 78, 78, 78, 79, 79, 79, 79, 79, 80, 80, 80, 80, 80, 81, 81, 81, 82, 82, 82, 82, 82, 82, 83, 83,
         83, 83, 83, 83, 83, 84, 84, 84, 84, 84, 84, 84, 85, 85, 85, 85, 85, 85, 85, 85, 85, 86, 86, 86, 86, 86, 86, 86,
         86; int(1..876)]
letting prerequisite_RelationAsSet_Explicit_2 be
        [35, 36, 37, 38, 54, 56, 68, 70, 72, 78, 81, 34, 36, 38, 39, 40, 42, 44, 50, 54, 60, 63, 64, 65, 74, 77, 83, 84,
         86, 33, 34, 35, 38, 39, 42, 43, 46, 49, 51, 55, 61, 63, 65, 70, 72, 73, 77, 80, 83, 85, 34, 35, 37, 39, 40, 43,
         45, 47, 49, 57, 59, 60, 61, 64, 66, 69, 71, 75, 79, 85, 36, 37, 39, 45, 48, 49, 51, 55, 56, 58, 61, 66, 67, 70,
         71, 76, 82, 84, 33, 40, 41, 56, 57, 60, 65, 66, 71, 77, 83, 86, 40, 46, 49, 53, 61, 62, 63, 65, 67, 70, 72, 76,
         84, 85, 38, 43, 45, 47, 50, 57, 59, 68, 69, 74, 33, 40, 41, 43, 44, 45, 48, 49, 51, 59, 62, 65, 67, 68, 69, 70,
         71, 74, 80, 81, 33, 34, 45, 50, 52, 55, 59, 60, 61, 63, 64, 70, 75, 80, 81, 83, 41, 43, 51, 52, 54, 58, 61, 62,
         64, 71, 72, 74, 84, 85, 86, 33, 36, 38, 39, 42, 49, 52, 54, 56, 63, 68, 71, 79, 84, 35, 39, 48, 52, 61, 64, 66,
         69, 71, 74, 80, 84, 85, 86, 33, 39, 41, 44, 46, 52, 55, 56, 58, 62, 63, 64, 65, 75, 78, 80, 84, 86, 36, 38, 40,
         43, 48, 49, 53, 60, 64, 67, 68, 70, 74, 75, 78, 82, 86, 33, 40, 41, 42, 44, 56, 57, 61, 62, 68, 69, 74, 78, 86,
         35, 38, 41, 56, 59, 61, 68, 69, 70, 72, 75, 81, 84, 33, 35, 40, 42, 45, 47, 58, 60, 67, 69, 73, 76, 78, 34, 37,
         39, 49, 52, 68, 69, 70, 74, 75, 76, 83, 84, 86, 34, 37, 39, 43, 49, 54, 57, 65, 77, 82, 84, 85, 34, 40, 44, 45,
         52, 53, 55, 58, 63, 65, 66, 67, 68, 69, 77, 78, 79, 80, 81, 82, 35, 37, 45, 49, 57, 58, 60, 61, 68, 77, 78, 79,
         80, 82, 86, 38, 39, 42, 43, 53, 56, 59, 60, 68, 73, 78, 80, 83, 85, 35, 38, 39, 45, 47, 53, 54, 57, 60, 62, 65,
         73, 78, 79, 83, 35, 37, 38, 51, 52, 53, 62, 65, 75, 77, 81, 82, 83, 86, 35, 37, 39, 43, 44, 46, 47, 49, 57, 59,
         62, 64, 69, 70, 71, 72, 73, 74, 78, 79, 81, 84, 35, 42, 46, 49, 51, 55, 56, 57, 58, 61, 63, 67, 70, 73, 75, 81,
         36, 39, 42, 43, 46, 47, 51, 56, 58, 61, 62, 65, 66, 70, 72, 73, 75, 76, 77, 83, 86, 33, 34, 39, 41, 49, 52, 55,
         60, 70, 74, 79, 86, 48, 50, 54, 56, 59, 62, 66, 67, 69, 74, 75, 77, 79, 81, 84, 37, 41, 42, 44, 45, 48, 49, 54,
         55, 61, 67, 70, 71, 80, 84, 36, 43, 59, 61, 64, 67, 74, 76, 79, 87, 88, 90, 93, 95, 96, 97, 88, 91, 92, 94, 95,
         98, 99, 87, 88, 90, 92, 94, 95, 96, 97, 98, 99, 87, 90, 91, 87, 89, 90, 91, 93, 94, 97, 89, 93, 94, 95, 97, 99,
         89, 90, 94, 95, 96, 97, 98, 99, 87, 88, 90, 92, 93, 94, 95, 96, 97, 98, 99, 87, 88, 92, 93, 96, 97, 87, 88, 89,
         90, 91, 92, 95, 96, 97, 98, 88, 90, 91, 95, 96, 97, 98, 99, 89, 90, 91, 92, 93, 96, 97, 87, 89, 91, 92, 94, 95,
         96, 97, 98, 99, 87, 88, 89, 90, 91, 96, 97, 87, 90, 92, 93, 95, 87, 89, 91, 94, 95, 96, 88, 89, 90, 93, 96, 87,
         88, 90, 92, 93, 94, 95, 97, 90, 91, 92, 94, 95, 96, 87, 90, 92, 97, 98, 99, 89, 91, 93, 96, 97, 98, 87, 88, 89,
         90, 91, 92, 93, 96, 97, 87, 88, 93, 94, 95, 96, 97, 98, 87, 89, 91, 92, 93, 94, 96, 97, 99, 87, 89, 91, 92, 93,
         94, 95, 96, 97, 98, 88, 89, 93, 94, 97, 98, 99, 87, 88, 90, 92, 93, 95, 96, 97, 98, 88, 90, 92, 93, 94, 98, 99,
         88, 91, 95, 97, 99, 88, 90, 93, 94, 95, 96, 97, 99, 90, 91, 92, 95, 96, 97, 99, 87, 88, 92, 93, 88, 89, 91, 94,
         95, 96, 99, 87, 91, 94, 97, 98, 99, 87, 88, 89, 92, 93, 94, 95, 96, 97, 87, 89, 90, 91, 94, 95, 97, 98, 99, 87,
         88, 89, 92, 95, 97, 98, 99, 87, 88, 90, 91, 92, 93, 95, 96, 97, 98, 99, 90, 91, 92, 94, 97, 99, 87, 95, 96, 87,
         88, 95, 97, 98, 89, 90, 92, 95, 97, 98, 99, 87, 89, 96, 97, 98, 99, 87, 88, 89, 91, 92, 94, 96, 97, 98, 87, 89,
         90, 91, 92, 93, 94, 95, 98, 99, 89, 90, 91, 92, 94, 98, 87, 88, 94, 96, 98, 88, 92, 93, 95, 96, 87, 94, 96, 87,
         91, 92, 93, 95, 97, 88, 89, 90, 93, 97, 98, 99, 90, 92, 93, 94, 95, 97, 99, 87, 88, 90, 91, 92, 93, 94, 96, 99,
         87, 88, 89, 90, 92, 93, 94, 99;
             int(1..876)]
letting course_load_Function1D be
        [7, 5, 4, 6, 7, 6, 3, 4, 3, 4, 4, 7, 4, 7, 4, 6, 4, 5, 5, 4, 5, 5, 3, 5, 6, 7, 5, 5, 4, 7, 4, 4, 6, 5, 5, 3, 6,
         4, 3, 5, 6, 7, 6, 3, 3, 7, 3, 5, 3, 6, 5, 5, 4, 6, 5, 7, 3, 5, 4, 6, 5, 7, 6, 5, 5, 4, 4, 3, 6, 4, 4, 3, 7, 7,
         4, 3, 3, 4, 4, 5, 4, 5, 3, 3, 6, 3, 5, 6, 4, 6, 7, 3, 4, 4, 7, 3, 3, 6, 3;
             int(1..99)]
letting load_per_period_ub be 31
letting load_per_period_lb be 10
letting courses_per_period_ub be 9
letting courses_per_period_lb be 3
letting fin1 be 876
letting fin2 be 99
letting fin3 be 7
